sat
( (t_init 3)
  (i_init 1)
  (j_init (- 1))
  (c_0 (- (/ 1 18)))
  (c_1 3)
  (c_2 1)
  (c_3 (- 1))
  (c_4 0)
  (c_5 (/ 19 18))
  (c_6 (- (/ 7 12)))
  (c_7 0)
  (c_8 (- (/ 1 18)))
  (c_9 0)
  (c_10 (/ 7 12))
  (c_11 0)
  (c_12 (- (/ 13 36)))
  (c_13 (- (/ 1 18)))
  (c_14 (- (/ 1 18)))
  (c_15 0)
  (c_16 (/ 11 36))
  (c_17 (/ 1 18))
  (c_18 (/ 1 18))
  (c_19 0) )
